p td 36 108
5 4
6 3
8 5
9 5
9 8
11 5
11 9
11 6
11 2
12 4
12 3
13 6
13 10
14 2
15 11
16 6
16 14
16 1
16 8
16 12
17 12
17 11
17 8
17 2
19 10
19 7
19 18
19 8
20 10
20 4
20 16
20 15
21 7
21 1
21 2
21 5
21 18
22 15
22 4
22 6
22 7
23 20
23 17
23 16
24 23
24 8
24 4
24 9
25 24
25 1
25 23
25 6
25 19
26 3
26 22
26 1
26 13
26 20
27 1
27 3
28 17
28 25
28 10
28 1
28 15
28 2
28 20
29 16
29 25
29 23
29 4
29 5
30 3
30 9
31 25
31 13
31 19
31 16
31 29
31 15
31 10
32 16
32 20
32 11
32 22
32 2
33 4
33 22
33 7
33 28
33 2
33 15
33 19
33 14
34 14
34 22
34 33
34 6
35 26
35 27
35 17
35 32
35 22
35 10
36 31
36 22
36 21
36 29
